proyfinal/src/viki/013/experimentInOfficeAgust.take6.output/96db232a-8ba1-499d-856d-0833c115626b.als.out
Reading from standard input... Use '--help' for help.
============================[ Problem Statistics ]=============================
|                                                                             |
|  Number of variables:         87638                                         |
|  Number of clauses:          161767                                         |
|  Parse time:                   0.04 s                                       |
|                                                                             |
============================[ Search Statistics ]==============================
| Conflicts |          ORIGINAL         |          LEARNT          | Progress |
|           |    Vars  Clauses Literals |    Limit  Clauses Lit/Cl |          |
===============================================================================
|       100 |   63755   110236   275146 |    40419      100      7 | 27.252 % |
|       250 |   63755   110236   275146 |    44461      250     14 | 27.252 % |
|       475 |   63755   110236   275146 |    48908      475     52 | 27.252 % |
|       812 |   58025    92057   230452 |    53798      805     59 | 33.790 % |
|      1318 |   57971    91837   229943 |    59178     1308    124 | 33.852 % |
|      2077 |   57541    90196   226092 |    65096     2037     99 | 34.342 % |
|      3216 |   57517    89976   225578 |    71606     3173     90 | 34.370 % |
|      4924 |   57450    89702   224913 |    78766     4876     77 | 34.446 % |
|      7486 |   57379    89619   224708 |    86643     7435     76 | 34.527 % |
|     11330 |   57272    89040   223326 |    95307    11266     81 | 34.649 % |
|     17096 |   57128    88490   222012 |   104838    16983     79 | 34.814 % |
===============================================================================
restarts              : 89
conflicts             : 24102          (7033 /sec)
decisions             : 82605          (0.00 % random) (24103 /sec)
propagations          : 34960054       (10200900 /sec)
conflict literals     : 1836836        (43.24 % deleted)
Memory used           : 47.11 MB
CPU time              : 3.42715 s

INDETERMINATE
